
Gurobi 11.0.1 (win64) logging started Tue May 14 15:50:00 2024

Set parameter LogFile to value "output/solver_log2.txt"
Gurobi Optimizer version 11.0.1 build v11.0.1rc0 (win64 - Windows 11.0 (22631.2))

CPU model: 11th Gen Intel(R) Core(TM) i7-1165G7 @ 2.80GHz, instruction set [SSE2|AVX|AVX2|AVX512]
Thread count: 4 physical cores, 8 logical processors, using up to 8 threads

Optimize a model with 2591 rows, 605 columns and 49125 nonzeros
Model fingerprint: 0x689d254f
Variable types: 248 continuous, 357 integer (357 binary)
Coefficient statistics:
  Matrix range     [4e-01, 1e+05]
  Objective range  [1e+00, 1e+02]
  Bounds range     [1e+00, 1e+00]
  RHS range        [1e-02, 1e+05]

User MIP start produced solution with objective 39052.5 (0.00s)
User MIP start produced solution with objective 39481.3 (0.01s)
User MIP start produced solution with objective 39594.4 (0.01s)
User MIP start produced solution with objective 39594.4 (0.01s)
Loaded user MIP start with objective 39594.4

Presolve removed 227 rows and 184 columns
Presolve time: 0.05s
Presolved: 2364 rows, 421 columns, 46427 nonzeros
Variable types: 234 continuous, 187 integer (183 binary)

Root relaxation: objective 4.706334e+04, 663 iterations, 0.04 seconds (0.09 work units)

    Nodes    |    Current Node    |     Objective Bounds      |     Work
 Expl Unexpl |  Obj  Depth IntInf | Incumbent    BestBd   Gap | It/Node Time

     0     0 47063.3386    0   14 39594.4343 47063.3386  18.9%     -    0s
     0     0 43531.1278    0   20 39594.4343 43531.1278  9.94%     -    0s
     0     0 43141.6514    0   22 39594.4343 43141.6514  8.96%     -    0s
     0     0 43141.6514    0   22 39594.4343 43141.6514  8.96%     -    0s
     0     0 43037.0296    0   22 39594.4343 43037.0296  8.69%     -    0s
     0     0 43008.2361    0   19 39594.4343 43008.2361  8.62%     -    0s
     0     0 43008.2361    0   19 39594.4343 43008.2361  8.62%     -    0s
     0     0 42506.2852    0   29 39594.4343 42506.2852  7.35%     -    0s
     0     0 42128.3761    0   22 39594.4343 42128.3761  6.40%     -    0s
     0     0 42128.3761    0   22 39594.4343 42128.3761  6.40%     -    0s
     0     0 42128.3761    0   21 39594.4343 42128.3761  6.40%     -    0s
     0     0 41552.4583    0   21 39594.4343 41552.4583  4.95%     -    0s
     0     0 41552.4583    0   22 39594.4343 41552.4583  4.95%     -    0s
     0     0 41552.4583    0   25 39594.4343 41552.4583  4.95%     -    0s
     0     0 41552.4583    0   26 39594.4343 41552.4583  4.95%     -    0s
     0     0 41552.4583    0   26 39594.4343 41552.4583  4.95%     -    0s
     0     0 41552.4583    0   27 39594.4343 41552.4583  4.95%     -    1s
     0     0 41552.4583    0   27 39594.4343 41552.4583  4.95%     -    1s
     0     0 41552.4583    0   28 39594.4343 41552.4583  4.95%     -    1s
     0     0 41552.4583    0   28 39594.4343 41552.4583  4.95%     -    1s
     0     2 41552.4583    0   28 39594.4343 41552.4583  4.95%     -    1s
*  303   246              76    39611.758066 40235.1774  1.57%   114    2s
*  423   316              67    39614.373911 39935.1463  0.81%  97.2    3s
H  460   501                    39614.374133 39619.6270  0.01%  98.5    3s
*  610   500              98    39614.546586 39619.6270  0.01%  94.3    3s
*  612   500              98    39614.592683 39619.6270  0.01%  94.1    3s
*  909   669              63    39614.741157 39619.6270  0.01%  92.5    4s
H 1334  1066                    39614.748576 39619.6270  0.01%  83.6    4s
* 1741   958              66    39616.710115 39619.6270  0.01%  68.8    4s

Cutting planes:
  Gomory: 1
  MIR: 20
  RLT: 2
  Relax-and-lift: 1

Explored 1783 nodes (126736 simplex iterations) in 5.05 seconds (10.42 work units)
Thread count was 8 (of 8 available processors)

Solution count 10: 39616.7 39616.7 39614.7 ... 39594.4

Optimal solution found (tolerance 1.00e-04)
Best objective 3.961671011485e+04, best bound 3.961962697723e+04, gap 0.0074%
